job_count = 20 ;
duration = [|27, 16, 1|13, 13, 4|7, 7, 8|21, 18, 1|10, 19, 8|28, 18, 7|5, 10, 7|5, 12, 6|9, 5, 7|27, 19, 7|10, 13, 7|29, 14, 8|16, 18, 7|28, 14, 4|22, 2, 4|29, 7, 2|24, 9, 6|8, 10, 2|13, 10, 4|11, 10, 4|] ;
machine_count = 3 ;
cost = [|10, 33, 46|17, 26, 59|14, 33, 38|12, 28, 40|19, 27, 34|17, 20, 46|19, 34, 33|12, 35, 32|12, 30, 57|17, 20, 58|15, 24, 41|16, 31, 55|11, 31, 54|18, 36, 50|13, 25, 46|11, 38, 46|16, 26, 41|15, 28, 45|17, 26, 36|15, 39, 52|] ;
deadline = [44, 44, 44, 44, 44, 44, 44, 44, 44, 44, 44, 44, 44, 44, 44, 44, 44, 44, 44, 44] ;
release = [0, 0, 0, 0, 0, 0, 0, 0, 0, 0, 0, 0, 0, 0, 0, 0, 0, 0, 0, 0] ;
resource = [|7, 7, 7|1, 1, 1|3, 3, 3|1, 1, 1|3, 3, 3|9, 9, 9|8, 8, 8|5, 5, 5|3, 3, 3|2, 2, 2|8, 8, 8|3, 3, 3|9, 9, 9|2, 2, 2|4, 4, 4|4, 4, 4|4, 4, 4|3, 3, 3|9, 9, 9|2, 2, 2|] ;
capacities = [10, 10, 10] ;
